n = 50;
C = 258;
w = [26,227,473,321,76,143,354,177,193,226,252,179,372,490,171,287,491,80,478,19,296,264,297,167,104,288,427,186,253,340,371,441,152,11,191,230,243,173,178,424,7,330,427,405,337,463,347,128,320,102];
p = [26,227,473,321,76,143,354,177,193,226,252,179,372,490,171,287,491,80,478,19,296,264,297,167,104,288,427,186,253,340,371,441,152,11,191,230,243,173,178,424,7,330,427,405,337,463,347,128,320,102];
